output ["solution = "++format(succ)++"\nobjective = "++format(obj)++"\n"];
function string : format(array [$U] of opt $T: x) = show(x);
function string : format(opt $T: x) = show(x);
int: n = 4;
array [1..n] of int: succ;
int: obj;
